
<<< setup


<<< generate

Version identifier: 22.1.1.0 | 2022-11-28 | 9160aff4d
CPXPARAM_TimeLimit                               1800
Found incumbent of value 0.000000 after 0.00 sec. (7.94 ticks)
Tried aggregator 1 time.
MIP Presolve eliminated 703 rows and 0 columns.
Reduced MIP has 307125 rows, 246753 columns, and 1105650 nonzeros.
Reduced MIP has 246051 binaries, 702 generals, 0 SOSs, and 0 indicators.
Presolve time = 0.22 sec. (409.15 ticks)
Probing time = 0.14 sec. (69.34 ticks)
Tried aggregator 1 time.
Detecting symmetries...
Reduced MIP has 307125 rows, 246753 columns, and 1105650 nonzeros.
Reduced MIP has 246051 binaries, 702 generals, 0 SOSs, and 0 indicators.
Presolve time = 1.69 sec. (1261.91 ticks)
Probing time = 0.10 sec. (69.30 ticks)
Clique table members: 8849.
MIP emphasis: balance optimality and feasibility.
MIP search method: dynamic search.
Parallel mode: deterministic, using up to 8 threads.
Root relaxation solution time = 100.36 sec. (112780.21 ticks)

        Nodes                                         Cuts/
   Node  Left     Objective  IInf  Best Integer    Best Bound    ItCnt     Gap

*     0+    0                            0.0000    16930.0000              --- 
*     0+    0                          100.0000    16930.0000              --- 
      0     0    16930.0000 82722      100.0000    16930.0000   159921     --- 
*     0+    0                          705.0000    16930.0000              --- 
      0     0    16930.0000 49660      705.0000   Cuts: 10000   182358     --- 
      0     0    16930.0000 49807      705.0000    Cuts: 1530   191140     --- 
      0     0    16930.0000 36704      705.0000     Cuts: 224   199284     --- 
*     0+    0                          767.0000    16930.0000              --- 
*     0+    0                          875.0000    16930.0000              --- 
      0     0        cutoff            875.0000    16930.0000   199284     --- 
      0     0    16930.0000 35549      875.0000     Cuts: 620   202117     --- 
      0     0    16930.0000 35328      875.0000     Cuts: 579   204119     --- 
      0     0    16930.0000 35317      875.0000     Cuts: 381   205893     --- 
*     0+    0                          880.0000    16930.0000              --- 
*     0+    0                         1042.0000    16930.0000              --- 
      0     0        cutoff           1042.0000    16930.0000   205893     --- 
      0     0    16930.0000 35006     1042.0000     Cuts: 402   207794     --- 
      0     0    16930.0000 34895     1042.0000     Cuts: 479   209574     --- 
      0     0    16930.0000 35186     1042.0000     Cuts: 407   210707     --- 
Heuristic still looking.
      0     2    16930.0000 30865     1042.0000    16930.0000   210707     --- 
Elapsed time = 444.41 sec. (567349.71 ticks, tree = 0.02 MB, solutions = 7)
      1     3    16930.0000 30624     1042.0000    16930.0000   230945     --- 
      2     3    16930.0000 30148     1042.0000    16930.0000   220904     --- 
      3     4    16930.0000 36053     1042.0000    16930.0000   250126     --- 
      4     5    16930.0000 33530     1042.0000    16930.0000   268987     --- 
      5     7    16930.0000 35635     1042.0000    16930.0000   295638     --- 
      6     8    16930.0000 30470     1042.0000    16930.0000   303433     --- 
      7     4    16930.0000 33663     1042.0000    16930.0000   244545     --- 
      8     9    16930.0000 29336     1042.0000    16930.0000   306000     --- 
      9     8    16930.0000 35543     1042.0000    16930.0000   295648     --- 
     10     9    16930.0000 30260     1042.0000    16930.0000   303752     --- 
Elapsed time = 735.20 sec. (780969.21 ticks, tree = 0.02 MB, solutions = 7)
     11     6    16930.0000 41532     1042.0000    16930.0000   290748     --- 
     12    11    16930.0000 28514     1042.0000    16930.0000   346362     --- 
     13    10    16930.0000 31710     1042.0000    16930.0000   348929     --- 
     14    15    16930.0000 28130     1042.0000    16930.0000   380170     --- 
     15    16    16930.0000 27678     1042.0000    16930.0000   380447     --- 
     16    17    16930.0000 27649     1042.0000    16930.0000   380775     --- 
     19    18    16930.0000 27615     1042.0000    16930.0000   381087     --- 
     20    19    16930.0000 27586     1042.0000    16930.0000   381413     --- 
     22    18    16930.0000 31511     1042.0000    16930.0000   412568     --- 
     24    19    16930.0000 31455     1042.0000    16930.0000   413056     --- 
Elapsed time = 800.96 sec. (821422.35 ticks, tree = 4.82 MB, solutions = 7)
     25    20    16930.0000 31340     1042.0000    16930.0000   413271     --- 
     26    21    16930.0000 31258     1042.0000    16930.0000   413576     --- 
     27    22    16930.0000 31136     1042.0000    16930.0000   413891     --- 
     28    23    16930.0000 31029     1042.0000    16930.0000   414204     --- 
     29     5    16930.0000 36316     1042.0000    16930.0000   273140     --- 
     30    24    16930.0000 30906     1042.0000    16930.0000   414507     --- 
     32    25    16930.0000 30824     1042.0000    16930.0000   414872     --- 
     33    17    16930.0000 31050     1042.0000    16930.0000   417549     --- 
     35    27    16930.0000 30599     1042.0000    16930.0000   415500     --- 
     37    28    16930.0000 30387     1042.0000    16930.0000   415704     --- 
Elapsed time = 828.14 sec. (834745.53 ticks, tree = 22.61 MB, solutions = 7)
     39    30    16930.0000 30175     1042.0000    16930.0000   416195     --- 
     41    31    16930.0000 30081     1042.0000    16930.0000   416488     --- 
     42    32    16930.0000 29997     1042.0000    16930.0000   416788     --- 
     43    12    16930.0000 34198     1042.0000    16930.0000   341136     --- 
     45    34    16930.0000 29797     1042.0000    16930.0000   417465     --- 
     48    35    16930.0000 29706     1042.0000    16930.0000   417765     --- 
     49    19    16930.0000 32954     1042.0000    16930.0000   468792     --- 
     51    20    16930.0000 28168     1042.0000    16930.0000   422041     --- 
     54    13    16930.0000 29559     1042.0000    16930.0000   344018     --- 
     59    40    16930.0000 29314     1042.0000    16930.0000   418731     --- 
Elapsed time = 848.77 sec. (849784.56 ticks, tree = 44.93 MB, solutions = 7)
     62    19    16930.0000 31091     1042.0000    16930.0000   451616     --- 
     64    20    16930.0000 31029     1042.0000    16930.0000   451935     --- 
     66    24    16930.0000 21822     1042.0000    16930.0000   393681     --- 
     69    25    16930.0000 21759     1042.0000    16930.0000   395184     --- 
     73    23    16930.0000 27623     1042.0000    16930.0000   425748     --- 
     76    22    16930.0000 32480     1042.0000    16930.0000   470591     --- 
     79    23    16930.0000 32417     1042.0000    16930.0000   470944     --- 
     81    24    16930.0000 32384     1042.0000    16930.0000   471191     --- 
     85    24    16930.0000 28109     1042.0000    16930.0000   493611     --- 
     88    26    16930.0000 20503     1042.0000    16930.0000   399997     --- 
Elapsed time = 864.52 sec. (862073.82 ticks, tree = 9.73 MB, solutions = 7)
     90    23    16930.0000 29849     1042.0000    16930.0000   453933     --- 
     91    33    16930.0000 20451     1042.0000    16930.0000   538160     --- 
     93    34    16930.0000 20420     1042.0000    16930.0000   538430     --- 
     96     6    16930.0000 37568     1042.0000    16930.0000   291107     --- 
     99    36    16930.0000 20418     1042.0000    16930.0000   538754     --- 
    100    37    16930.0000 20378     1042.0000    16930.0000   539028     --- 
    101    38    16930.0000 20327     1042.0000    16930.0000   539362     --- 
    102    26    16930.0000 27598     1042.0000    16930.0000   495601     --- 
    104    40    16930.0000 20325     1042.0000    16930.0000   539807     --- 
    105    27    16930.0000 27167     1042.0000    16930.0000   496573     --- 
Elapsed time = 880.27 sec. (873208.91 ticks, tree = 13.86 MB, solutions = 7)
    107    42    16930.0000 20120     1042.0000    16930.0000   540349     --- 
    109    43    16930.0000 20024     1042.0000    16930.0000   540614     --- 
    112    44    16930.0000 19921     1042.0000    16930.0000   540845     --- 
    113    45    16930.0000 19808     1042.0000    16930.0000   541480     --- 
    114    46    16930.0000 19685     1042.0000    16930.0000   541732     --- 
    116    47    16930.0000 19598     1042.0000    16930.0000   542078     --- 
    117    48    16930.0000 19465     1042.0000    16930.0000   542384     --- 
    118    49    16930.0000 19370     1042.0000    16930.0000   542608     --- 
    123    51    16930.0000 19297     1042.0000    16930.0000   542892     --- 
    128    52    16930.0000 19244     1042.0000    16930.0000   543127     --- 
Elapsed time = 904.20 sec. (888225.05 ticks, tree = 45.89 MB, solutions = 7)
    130    53    16930.0000 19163     1042.0000    16930.0000   543325     --- 
    131    54    16930.0000 19093     1042.0000    16930.0000   543550     --- 
    133    27    16930.0000 26167     1042.0000    16930.0000   459725     --- 
    136    27    16930.0000 33642     1042.0000    16930.0000   523506     --- 
    138    56    16930.0000 18974     1042.0000    16930.0000   544004     --- 
    140    28    16930.0000 30867     1042.0000    16930.0000   526926     --- 
*   141+   24                        10986.0000    16930.0000            54.11%
    141    26    16930.0000 23046    10986.0000    16930.0000   432425   54.11%
    144    75    16930.0000 20786    10986.0000    16930.0000   599444   54.11%
    146    58    16930.0000 18521    10986.0000    16930.0000   547485   54.11%
    148    78    16930.0000 22630    10986.0000    16930.0000   608431   54.11%
Elapsed time = 919.98 sec. (904751.04 ticks, tree = 57.81 MB, solutions = 8)
    150    79    16930.0000 22534    10986.0000    16930.0000   608710   54.11%
    152    78    16930.0000 19161    10986.0000    16930.0000   604578   54.11%
    155    81    16930.0000 22532    10986.0000    16930.0000   609190   54.11%
    156    35    16930.0000 29263    10986.0000    16930.0000   581366   54.11%
    158    80    16930.0000 18707    10986.0000    16930.0000   607154   54.11%
    160    84    16930.0000 22362    10986.0000    16930.0000   610519   54.11%
    162    85    16930.0000 22246    10986.0000    16930.0000   610772   54.11%
    165    86    16930.0000 22120    10986.0000    16930.0000   611022   54.11%
    166    87    16930.0000 22020    10986.0000    16930.0000   611351   54.11%
    167    59    16930.0000 18078    10986.0000    16930.0000   551248   54.11%
Elapsed time = 940.61 sec. (919675.58 ticks, tree = 57.14 MB, solutions = 8)
    171   104    16930.0000 18062    10986.0000    16930.0000   620726   54.11%
    173    90    16930.0000 21754    10986.0000    16930.0000   612108   54.11%
    176    91    16930.0000 21604    10986.0000    16930.0000   612411   54.11%
    178   106    16930.0000 17976    10986.0000    16930.0000   621429   54.11%
    180   108    16930.0000 17931    10986.0000    16930.0000   621633   54.11%
    184   112    16930.0000 17921    10986.0000    16930.0000   621641   54.11%
    186   114    16930.0000 17907    10986.0000    16930.0000   621834   54.11%
    189   130    16930.0000 20153    10986.0000    16930.0000   643538   54.11%
    191   116    16930.0000 25701    10986.0000    16930.0000   642757   54.11%
    199   121    16930.0000 17540    10986.0000    16930.0000   623325   54.11%
Elapsed time = 971.41 sec. (936453.49 ticks, tree = 135.72 MB, solutions = 8)
    207   145    16930.0000 26042    10986.0000    16930.0000   679094   54.11%
    215   132    16930.0000 17342    10986.0000    16930.0000   624859   54.11%
    224   149    16930.0000 25726    10986.0000    16930.0000   680993   54.11%
    226   151    16930.0000 25474    10986.0000    16930.0000   681646   54.11%
    229    27    16930.0000 32317    10986.0000    16930.0000   472203   54.11%
    241   155    16930.0000 27516    10986.0000    16930.0000   724869   54.11%
    252   165    16930.0000 19004    10986.0000    16930.0000   734692   54.11%
    259   169    16930.0000 18996    10986.0000    16930.0000   736119   54.11%
    268   176    16930.0000 24602    10986.0000    16930.0000   741149   54.11%
    272   178    16930.0000 18974    10986.0000    16930.0000   739145   54.11%
Elapsed time = 1054.83 sec. (977501.18 ticks, tree = 111.37 MB, solutions = 8)
    279   185    16930.0000 18598    10986.0000    16930.0000   740213   54.11%
    284   190    16930.0000 19074    10986.0000    16930.0000   741258   54.11%
    291   212    16930.0000 17148    10986.0000    16930.0000   743881   54.11%
    301   219    16930.0000 26182    10986.0000    16930.0000   751844   54.11%
    305   221    16930.0000 26106    10986.0000    16930.0000   753056   54.11%
    309   225    16930.0000 25923    10986.0000    16930.0000   754023   54.11%
    311   227    16930.0000 25861    10986.0000    16930.0000   754898   54.11%
    318   230    16930.0000 25725    10986.0000    16930.0000   755851   54.11%
    321   233    16930.0000 25635    10986.0000    16930.0000   756998   54.11%
    326   177    16930.0000 26391    10986.0000    16930.0000   765606   54.11%
Elapsed time = 1119.53 sec. (1023570.63 ticks, tree = 143.02 MB, solutions = 8)
    336   271    16930.0000 24193    10986.0000    16930.0000   797811   54.11%
    346   267    16930.0000 15364    10986.0000    16930.0000   773756   54.11%
    367   274    16930.0000 15390    10986.0000    16930.0000   774588   54.11%
    389   315    16930.0000 18360    10986.0000    16930.0000   829804   54.11%
    411   330    16930.0000 17269    10986.0000    16930.0000   845328   54.11%
    440   325    16930.0000 18141    10986.0000    16930.0000   830808   54.11%
    457   330    16930.0000 17945    10986.0000    16930.0000   831570   54.11%
    477   349    16930.0000 16894    10986.0000    16930.0000   847107   54.11%
    503   356    16930.0000 16692    10986.0000    16930.0000   847616   54.11%
    523   371    16930.0000 23219    10986.0000    16930.0000   858901   54.11%
Elapsed time = 1176.34 sec. (1064351.29 ticks, tree = 322.98 MB, solutions = 8)
    549   360    16930.0000 22968    10986.0000    16930.0000   852347   54.11%
    576   366    16930.0000 22678    10986.0000    16930.0000   852758   54.11%
    605   464    16930.0000 17312    10986.0000    16930.0000   874343   54.11%
    640   414    16930.0000 31965    10986.0000    16930.0000   871162   54.11%
    666   396    16930.0000 22398    10986.0000    16930.0000   861770   54.11%
    699   403    16930.0000 22282    10986.0000    16930.0000   862066   54.11%
    740   525    infeasible          10986.0000    16930.0000   882181   54.11%
    779   526    16930.0000 24307    10986.0000    16930.0000   895013   54.11%
    828   438    16930.0000 23784    10986.0000    16930.0000   872140   54.11%
    868   649    16930.0000 21564    10986.0000    16930.0000   903551   54.11%
Elapsed time = 1218.73 sec. (1103734.59 ticks, tree = 836.59 MB, solutions = 8)
    900   551    16930.0000 14903    10986.0000    16930.0000   883771   54.11%
    937   771    16930.0000 16554    10986.0000    16930.0000   912923   54.11%
    981   668    16930.0000 21205    10986.0000    16930.0000   904614   54.11%
   1024   577    16930.0000 14717    10986.0000    16930.0000   884813   54.11%
   1068   585    16930.0000 14681    10986.0000    16930.0000   884989   54.11%
   1117   621    16930.0000 23076    10986.0000    16930.0000   900747   54.11%
   1161   766    16930.0000 20828    10986.0000    16930.0000   910857   54.11%
   1216   845    16930.0000 14868    10986.0000    16930.0000   932254   54.11%
   1268   813    16930.0000 15968    10986.0000    16930.0000   916091   54.11%
   1321   726    16930.0000 20807    10986.0000    16930.0000   906407   54.11%
Elapsed time = 1262.81 sec. (1142408.24 ticks, tree = 990.10 MB, solutions = 8)
   1372   737    16930.0000 20785    10986.0000    16930.0000   906429   54.11%
   1423   670    16930.0000 22368    10986.0000    16930.0000   902138   54.11%
   1472   953    16930.0000 13953    10986.0000    16930.0000   937937   54.11%
   1520  1345    16930.0000 15669    10986.0000    16930.0000   966865   54.11%
   1576  1062    16930.0000 22230    10986.0000    16930.0000   946923   54.11%
   1623  1270    16930.0000 20171    10986.0000    16930.0000   954457   54.11%
   1678  1280    16930.0000 20134    10986.0000    16930.0000   954562   54.11%
   1730  1301    16930.0000 26666    10986.0000    16930.0000   963153   54.11%
   1782  1307    16930.0000 26604    10986.0000    16930.0000   963372   54.11%
*  1803+ 1506                        14371.0000    16930.0000            17.81%
   1828  1427    16930.0000 13763    14371.0000    16930.0000   973640   17.81%
Elapsed time = 1296.73 sec. (1180859.91 ticks, tree = 2235.17 MB, solutions = 9)
Nodefile size = 121.46 MB (17.95 MB after compression)
   1884  1389    16930.0000 15307    14371.0000    16930.0000   969447   17.81%
   1927  1317    16930.0000 19714    14371.0000    16930.0000   956178   17.81%
*  1967+ 1560                        14516.0000    16930.0000            16.63%
   1968  1449    16930.0000 13491    14516.0000    16930.0000   974754   16.63%
   1994  1458    16930.0000 13444    14516.0000    16930.0000   974958   16.63%
   2026  1468    16930.0000 13417    14516.0000    16930.0000   975132   16.63%
   2046  1473    16930.0000 13341    14516.0000    16930.0000   975665   16.63%
   2080  1946    16930.0000 13027    14516.0000    16930.0000  1003939   16.63%
   2106  1902    16930.0000 24948    14516.0000    16930.0000  1001264   16.63%
   2139  1965    16930.0000 14745    14516.0000    16930.0000  1004869   16.63%
   2175  1937    16930.0000 22267    14516.0000    16930.0000  1003848   16.63%
Elapsed time = 1344.80 sec. (1219855.17 ticks, tree = 3319.76 MB, solutions = 10)
Nodefile size = 1161.36 MB (163.61 MB after compression)
*  2200+ 2011                        14569.0000    16930.0000            16.21%
   2213  1969    16930.0000 12493    14569.0000    16930.0000  1006040   16.21%
   2266  1976    16930.0000 12363    14569.0000    16930.0000  1006394   16.21%
   2303  2100    16930.0000 14575    14569.0000    16930.0000  1017044   16.21%
   2335  2237    16930.0000 21867    14569.0000    16930.0000  1022722   16.21%
   2375  2177    16930.0000 24894    14569.0000    16930.0000  1017935   16.21%
   2417  2074    16930.0000 12772    14569.0000    16930.0000  1016416   16.21%
*  2442+ 2074                        14598.0000    16930.0000            15.97%
   2451  2190    16930.0000 24716    14598.0000    16930.0000  1018357   15.97%
   2477  2269    16930.0000 21349    14598.0000    16930.0000  1023997   15.97%
*  2510+ 2283                        14637.0000    16930.0000            15.67%
   2510  2285    16930.0000 12785    14637.0000    16930.0000  1025234   15.67%
   2545  2369    16930.0000 14053    14637.0000    16930.0000  1035815   15.67%
Elapsed time = 1381.16 sec. (1258707.42 ticks, tree = 4086.44 MB, solutions = 15)
Nodefile size = 1924.66 MB (268.09 MB after compression)
   2568  2209    16930.0000 24048    14637.0000    16930.0000  1020952   15.67%
   2599  2379    16930.0000 13800    14637.0000    16930.0000  1037160   15.67%
*  2609+ 2384                        14736.0000    16930.0000            14.89%
   2611  2317    16930.0000 21101    14736.0000    16930.0000  1036357   14.89%
   2623  2320    16930.0000 21004    14736.0000    16930.0000  1036935   14.89%
   2630  2400    16930.0000 13610    14736.0000    16930.0000  1038490   14.89%
   2638  2406    16930.0000 13526    14736.0000    16930.0000  1039133   14.89%
   2643  2207    16930.0000 12187    14736.0000    16930.0000  1021361   14.89%
   2644  2287    16930.0000 21067    14736.0000    16930.0000  1024895   14.89%

Performing restart 1

Repeating presolve.
Tried aggregator 1 time.
Reduced MIP has 307125 rows, 246753 columns, and 1105650 nonzeros.
Reduced MIP has 246051 binaries, 702 generals, 0 SOSs, and 0 indicators.
Presolve time = 0.24 sec. (548.22 ticks)
Tried aggregator 1 time.
Reduced MIP has 307125 rows, 246753 columns, and 1105650 nonzeros.
Reduced MIP has 246051 binaries, 702 generals, 0 SOSs, and 0 indicators.
Presolve time = 1.69 sec. (1272.28 ticks)
Represolve time = 3.04 sec. (2801.83 ticks)
   2645     0    16930.0000 57671    14736.0000    Cuts: 9982  1228224   14.89%
   2645     0    16930.0000 48786    14736.0000    Cuts: 9954  1252709   14.89%

Clique cuts applied:  1
Cover cuts applied:  1911
Implied bound cuts applied:  378
Flow cuts applied:  588
Mixed integer rounding cuts applied:  10985
Zero-half cuts applied:  647
Lift and project cuts applied:  3
Gomory fractional cuts applied:  1

Root node processing (before b&c):
  Real time             =  444.17 sec. (567185.58 ticks)
Parallel b&c, 8 threads:
  Real time             = 1355.98 sec. (1414525.60 ticks)
  Sync time (average)   =  244.57 sec.
  Wait time (average)   =    0.00 sec.
                          ------------
Total (root+branch&cut) = 1800.14 sec. (1981711.18 ticks)

<<< solve


OBJECTIVE: 14736

<<< post process


<<< done

